30 30
20
3 3   23 27
3 4   23 9 
3 5   9 25
3 6   23 21
3 7   6 23
3 8   23 13
3 9   23 0 
3 10  6 13
3 11  0 0 
3 13  6 0 
3 14  3 16
3 16  3 0 
3 19  0 11
3 25  9 0 
4 3   26 6 
4 4   26 9 
4 6   26 0 
4 8   26 22
4 9   26 13
11 30  12 0 
